NAME /Users/henri/Research/solvers/instances/idol-instances/robust/collection/cbp_Subramanyam_et_al_2020/CapBud_N30_4/models/uncertain_technology_matrix/
ROWS
 N  OBJ
 L  capacity
 L  c_5445
 L  c_5446
 L  c_5447
 L  c_5448
 L  c_5449
 L  c_5450
 L  c_5451
 L  c_5452
 L  c_5453
 L  c_5454
 L  c_5455
 L  c_5456
 L  c_5457
 L  c_5458
 L  c_5459
 L  c_5460
 L  c_5461
 L  c_5462
 L  c_5463
 L  c_5464
 L  c_5465
 L  c_5466
 L  c_5467
 L  c_5468
 L  c_5469
 L  c_5470
 L  c_5471
 L  c_5472
 L  c_5473
 L  c_5474
COLUMNS
    MARKER    'MARKER'                 'INTORG'
    x_0        OBJ        7.10837
    x_0        c_5445     1
    x_0        capacity   1.42167
    x_1        OBJ        2.69864
    x_1        c_5446     1
    x_1        capacity   0.539729
    x_2        OBJ        8.11296
    x_2        c_5447     1
    x_2        capacity   1.62259
    x_3        OBJ        6.33374
    x_3        c_5448     1
    x_3        capacity   1.26675
    x_4        OBJ        4.29358
    x_4        c_5449     1
    x_4        capacity   0.858715
    x_5        OBJ        2.6417
    x_5        c_5450     1
    x_5        capacity   0.52834
    x_6        OBJ        2.74828
    x_6        c_5451     1
    x_6        capacity   0.549656
    x_7        OBJ        6.0187
    x_7        c_5452     1
    x_7        capacity   1.20374
    x_8        OBJ        3.95888
    x_8        c_5453     1
    x_8        capacity   0.791776
    x_9        OBJ        8.58487
    x_9        c_5454     1
    x_9        capacity   1.71697
    x_10       OBJ        9.48247
    x_10       c_5455     1
    x_10       capacity   1.89649
    x_11       OBJ        8.0848
    x_11       c_5456     1
    x_11       capacity   1.61696
    x_12       OBJ        1.24762
    x_12       c_5457     1
    x_12       capacity   0.249524
    x_13       OBJ        2.73098
    x_13       c_5458     1
    x_13       capacity   0.546195
    x_14       OBJ        9.76742
    x_14       c_5459     1
    x_14       capacity   1.95348
    x_15       OBJ        7.5971
    x_15       c_5460     1
    x_15       capacity   1.51942
    x_16       OBJ        2.7239
    x_16       c_5461     1
    x_16       capacity   0.54478
    x_17       OBJ        3.30406
    x_17       c_5462     1
    x_17       capacity   0.660812
    x_18       OBJ        2.9107
    x_18       c_5463     1
    x_18       capacity   0.582139
    x_19       OBJ        7.02475
    x_19       c_5464     1
    x_19       capacity   1.40495
    x_20       OBJ        2.49257
    x_20       c_5465     1
    x_20       capacity   0.498514
    x_21       OBJ        9.58482
    x_21       c_5466     1
    x_21       capacity   1.91696
    x_22       OBJ        2.13244
    x_22       c_5467     1
    x_22       capacity   0.426488
    x_23       OBJ        2.17721
    x_23       c_5468     1
    x_23       capacity   0.435442
    x_24       OBJ        2.49326
    x_24       c_5469     1
    x_24       capacity   0.498653
    x_25       OBJ        8.60307
    x_25       c_5470     1
    x_25       capacity   1.72061
    x_26       OBJ        5.24782
    x_26       c_5471     1
    x_26       capacity   1.04956
    x_27       OBJ        0.0530369
    x_27       c_5472     1
    x_27       capacity   0.0106074
    x_28       OBJ        1.21547
    x_28       c_5473     1
    x_28       capacity   0.243094
    x_29       OBJ        0.402419
    x_29       c_5474     1
    x_29       capacity   0.0804838
    y_0        OBJ        5.68669
    y_0        c_5445     1
    y_0        capacity   1.42167
    y_1        OBJ        2.15891
    y_1        c_5446     1
    y_1        capacity   0.539729
    y_2        OBJ        6.49037
    y_2        c_5447     1
    y_2        capacity   1.62259
    y_3        OBJ        5.067
    y_3        c_5448     1
    y_3        capacity   1.26675
    y_4        OBJ        3.43486
    y_4        c_5449     1
    y_4        capacity   0.858715
    y_5        OBJ        2.11336
    y_5        c_5450     1
    y_5        capacity   0.52834
    y_6        OBJ        2.19862
    y_6        c_5451     1
    y_6        capacity   0.549656
    y_7        OBJ        4.81496
    y_7        c_5452     1
    y_7        capacity   1.20374
    y_8        OBJ        3.1671
    y_8        c_5453     1
    y_8        capacity   0.791776
    y_9        OBJ        6.8679
    y_9        c_5454     1
    y_9        capacity   1.71697
    y_10       OBJ        7.58597
    y_10       c_5455     1
    y_10       capacity   1.89649
    y_11       OBJ        6.46784
    y_11       c_5456     1
    y_11       capacity   1.61696
    y_12       OBJ        0.998095
    y_12       c_5457     1
    y_12       capacity   0.249524
    y_13       OBJ        2.18478
    y_13       c_5458     1
    y_13       capacity   0.546195
    y_14       OBJ        7.81394
    y_14       c_5459     1
    y_14       capacity   1.95348
    y_15       OBJ        6.07768
    y_15       c_5460     1
    y_15       capacity   1.51942
    y_16       OBJ        2.17912
    y_16       c_5461     1
    y_16       capacity   0.54478
    y_17       OBJ        2.64325
    y_17       c_5462     1
    y_17       capacity   0.660812
    y_18       OBJ        2.32856
    y_18       c_5463     1
    y_18       capacity   0.582139
    y_19       OBJ        5.6198
    y_19       c_5464     1
    y_19       capacity   1.40495
    y_20       OBJ        1.99405
    y_20       c_5465     1
    y_20       capacity   0.498514
    y_21       OBJ        7.66786
    y_21       c_5466     1
    y_21       capacity   1.91696
    y_22       OBJ        1.70595
    y_22       c_5467     1
    y_22       capacity   0.426488
    y_23       OBJ        1.74177
    y_23       c_5468     1
    y_23       capacity   0.435442
    y_24       OBJ        1.99461
    y_24       c_5469     1
    y_24       capacity   0.498653
    y_25       OBJ        6.88245
    y_25       c_5470     1
    y_25       capacity   1.72061
    y_26       OBJ        4.19825
    y_26       c_5471     1
    y_26       capacity   1.04956
    y_27       OBJ        0.0424295
    y_27       c_5472     1
    y_27       capacity   0.0106074
    y_28       OBJ        0.972377
    y_28       c_5473     1
    y_28       capacity   0.243094
    y_29       OBJ        0.321935
    y_29       c_5474     1
    y_29       capacity   0.0804838
    MARKER    'MARKER'                 'INTEND'
RHS
    RHS       capacity   70.8878
    RHS       c_5445     1
    RHS       c_5446     1
    RHS       c_5447     1
    RHS       c_5448     1
    RHS       c_5449     1
    RHS       c_5450     1
    RHS       c_5451     1
    RHS       c_5452     1
    RHS       c_5453     1
    RHS       c_5454     1
    RHS       c_5455     1
    RHS       c_5456     1
    RHS       c_5457     1
    RHS       c_5458     1
    RHS       c_5459     1
    RHS       c_5460     1
    RHS       c_5461     1
    RHS       c_5462     1
    RHS       c_5463     1
    RHS       c_5464     1
    RHS       c_5465     1
    RHS       c_5466     1
    RHS       c_5467     1
    RHS       c_5468     1
    RHS       c_5469     1
    RHS       c_5470     1
    RHS       c_5471     1
    RHS       c_5472     1
    RHS       c_5473     1
    RHS       c_5474     1
BOUNDS
 LI BND       x_0        0
 UI BND       x_0        1
 LI BND       x_1        0
 UI BND       x_1        1
 LI BND       x_2        0
 UI BND       x_2        1
 LI BND       x_3        0
 UI BND       x_3        1
 LI BND       x_4        0
 UI BND       x_4        1
 LI BND       x_5        0
 UI BND       x_5        1
 LI BND       x_6        0
 UI BND       x_6        1
 LI BND       x_7        0
 UI BND       x_7        1
 LI BND       x_8        0
 UI BND       x_8        1
 LI BND       x_9        0
 UI BND       x_9        1
 LI BND       x_10       0
 UI BND       x_10       1
 LI BND       x_11       0
 UI BND       x_11       1
 LI BND       x_12       0
 UI BND       x_12       1
 LI BND       x_13       0
 UI BND       x_13       1
 LI BND       x_14       0
 UI BND       x_14       1
 LI BND       x_15       0
 UI BND       x_15       1
 LI BND       x_16       0
 UI BND       x_16       1
 LI BND       x_17       0
 UI BND       x_17       1
 LI BND       x_18       0
 UI BND       x_18       1
 LI BND       x_19       0
 UI BND       x_19       1
 LI BND       x_20       0
 UI BND       x_20       1
 LI BND       x_21       0
 UI BND       x_21       1
 LI BND       x_22       0
 UI BND       x_22       1
 LI BND       x_23       0
 UI BND       x_23       1
 LI BND       x_24       0
 UI BND       x_24       1
 LI BND       x_25       0
 UI BND       x_25       1
 LI BND       x_26       0
 UI BND       x_26       1
 LI BND       x_27       0
 UI BND       x_27       1
 LI BND       x_28       0
 UI BND       x_28       1
 LI BND       x_29       0
 UI BND       x_29       1
 LI BND       y_0        0
 UI BND       y_0        1
 LI BND       y_1        0
 UI BND       y_1        1
 LI BND       y_2        0
 UI BND       y_2        1
 LI BND       y_3        0
 UI BND       y_3        1
 LI BND       y_4        0
 UI BND       y_4        1
 LI BND       y_5        0
 UI BND       y_5        1
 LI BND       y_6        0
 UI BND       y_6        1
 LI BND       y_7        0
 UI BND       y_7        1
 LI BND       y_8        0
 UI BND       y_8        1
 LI BND       y_9        0
 UI BND       y_9        1
 LI BND       y_10       0
 UI BND       y_10       1
 LI BND       y_11       0
 UI BND       y_11       1
 LI BND       y_12       0
 UI BND       y_12       1
 LI BND       y_13       0
 UI BND       y_13       1
 LI BND       y_14       0
 UI BND       y_14       1
 LI BND       y_15       0
 UI BND       y_15       1
 LI BND       y_16       0
 UI BND       y_16       1
 LI BND       y_17       0
 UI BND       y_17       1
 LI BND       y_18       0
 UI BND       y_18       1
 LI BND       y_19       0
 UI BND       y_19       1
 LI BND       y_20       0
 UI BND       y_20       1
 LI BND       y_21       0
 UI BND       y_21       1
 LI BND       y_22       0
 UI BND       y_22       1
 LI BND       y_23       0
 UI BND       y_23       1
 LI BND       y_24       0
 UI BND       y_24       1
 LI BND       y_25       0
 UI BND       y_25       1
 LI BND       y_26       0
 UI BND       y_26       1
 LI BND       y_27       0
 UI BND       y_27       1
 LI BND       y_28       0
 UI BND       y_28       1
 LI BND       y_29       0
 UI BND       y_29       1
ENDATA
